(set-info :original "../out2/s_sift_either_override.c/s_sift_either_override5f456.bc.txt")
(set-info :authors "SeaHorn v.10.0.0-rc0")
(declare-rel verifier.error (Bool Bool Bool ))
(declare-rel __CPROVER_file_local_priority_queue_c_s_sift_either@_tail ())
(declare-rel __CPROVER_file_local_priority_queue_c_s_sift_either@.split ())
(declare-rel __CPROVER_file_local_priority_queue_c_s_sift_either (Bool Bool Bool ))
(declare-rel main@_tail ())
(declare-rel main@.split ())
(declare-var __CPROVER_file_local_priority_queue_c_s_sift_either@_tail_0 Bool )
(declare-var __CPROVER_file_local_priority_queue_c_s_sift_either@.split_0 Bool )
(declare-var main@_tail_0 Bool )
(declare-var main@.split_0 Bool )
(rule (verifier.error false false false))
(rule (verifier.error false true true))
(rule (verifier.error true false true))
(rule (verifier.error true true true))
(rule (__CPROVER_file_local_priority_queue_c_s_sift_either true true true))
(rule (__CPROVER_file_local_priority_queue_c_s_sift_either false true true))
(rule (__CPROVER_file_local_priority_queue_c_s_sift_either false false false))
(rule __CPROVER_file_local_priority_queue_c_s_sift_either@_tail)
(rule (=> (and __CPROVER_file_local_priority_queue_c_s_sift_either@_tail
         true
         (=> __CPROVER_file_local_priority_queue_c_s_sift_either@.split_0
             (and __CPROVER_file_local_priority_queue_c_s_sift_either@.split_0
                  __CPROVER_file_local_priority_queue_c_s_sift_either@_tail_0))
         __CPROVER_file_local_priority_queue_c_s_sift_either@.split_0)
    __CPROVER_file_local_priority_queue_c_s_sift_either@.split))
(rule (=> __CPROVER_file_local_priority_queue_c_s_sift_either@.split
    (__CPROVER_file_local_priority_queue_c_s_sift_either true false false)))
(rule main@_tail)
(rule (=> (and main@_tail
         true
         (__CPROVER_file_local_priority_queue_c_s_sift_either true false false)
         (=> main@.split_0 (and main@.split_0 main@_tail_0))
         main@.split_0)
    main@.split))
(query main@.split)

